TYPE : Vertex Cover
DIMENSION: 35
EDGE_DATA_SECTION:
0 3
0 12
0 14
0 16
0 21
0 23
0 24
0 26
1 2
1 15
1 16
1 22
2 11
2 24
3 4
3 11
3 14
3 23
3 29
3 31
3 33
4 9
4 12
4 20
4 22
4 27
4 34
5 7
5 11
5 13
5 23
6 13
6 15
6 22
6 25
7 17
7 19
7 28
7 29
7 30
8 10
8 15
8 17
8 18
8 19
8 21
8 24
8 33
8 34
9 12
9 14
9 15
9 20
9 32
10 18
10 24
10 25
11 12
11 20
11 28
12 23
12 25
12 32
13 15
13 20
13 24
13 25
13 27
13 31
13 32
13 33
14 16
14 20
14 22
14 23
14 31
14 32
15 29
15 32
16 20
16 23
16 28
17 20
17 21
17 22
17 26
17 30
17 34
18 26
18 27
19 20
19 27
19 29
19 31
19 34
22 33
23 24
23 26
23 29
23 34
24 25
24 34
25 31
26 28
26 32
27 28
27 32
27 33
28 29
31 32
31 33
33 34
-1
VERTEX_DEGREE:
8.0 4.0 3.0 8.0 7.0 4.0 4.0 6.0 9.0 6.0 4.0 6.0 7.0 10.0 9.0 7.0 6.0 8.0 4.0 7.0 8.0 3.0 6.0 10.0 8.0 6.0 6.0 7.0 6.0 6.0 2.0 7.0 8.0 7.0 7.0
VERTEX_COVER:
0 1 3 4 6 7 8 9 11 13 14 17 18 19 20 23 24 25 28 29 32 33
EOF
